200
129
234
151
273
44
26
274
108
228
216
266
211
121
291
156
71
213
240
206
245
69
114
9
224
76
36
137
86
248
161
204
116
50
255
59
140
259
267
168
271
281
278
13
227
192
68
33
264
253
98
75
237
21
207
32
292
80
31
297
66
52
283
243
97
166
189
236
85
89
254
233
215
210
130
184
178
181
62
262
191
1
201
208
198
242
158
54
23
263
79
293
276
48
144
295
298
103
251
277
96
100
260
61
177
101
139
38
219
221
6
270
268
165
155
265
15
173
84
34
203
56
232
65
169
105
163
296
115
83
95
287
0
122
22
205
29
37
288
290
195
47
141
239
159
299
5
28
127
247
43
132
220
188
214
193
82
30
246
27
279
167
77
222
2
238
252
42
64
8
123
53
256
134
284
202
261
223
258
171
88
154
72
35
170
46
250
81
294
111
196
148
212
94
241
3
10
289
229
249
244
END